\ENCODING=ISO-8859-1
\Problem name: cutting_stock

Minimize
 obj: x1 + x2 + x3
Subject To
 c1: 5 x1 >= 25
 c2: 3 x2 >= 20
 c3: x3 >= 15
Bounds
 25 <= x1 <= 2147483647
 20 <= x2 <= 2147483647
 15 <= x3 <= 2147483647
End
